795
41888
655
3564
7626
65855
3860
805
520
42238
540
126
857
235
14102
14672
306
24744
13769
728
984
68967
25357
25195
548
7395
3630
3521
64
977
144
13342
1684
3446
41603
26563
124
858
1558
327
1359
7299
1896
1869
3608
64211
323
2189
41120
15645
13029
500
852
13601
29
3666
297
179
65388
1462
6489
109
1926
3686
13338
41751
64254
494
3379
3594
752
1315
13614
3549
7191
83
386
3332
1080
3445
182
42793
19
25677
213
23965
1336
399
13531
14687
1818
6816
313
217
425
93340
1411
362
24048
13040
